# ethanol at a nacl surface

variable pre equal 1 # desired pressure (Atm)
variable tem equal 300 # desired temperature (K)

variable k1 equal 0.5 # spring constant
variable k2 equal 5 # spring constant

units real # style of units (A, fs, Kcal/mol)
atom_style full # molecular + charge
bond_style harmonic
angle_style harmonic
dihedral_style harmonic
boundary p p p # periodic boundary conditions
pair_style lj/cut/coul/long 10 # cut-off 1 nm
kspace_style pppm 1.0e-4
pair_modify mix arithmetic tail yes # eij = sqrt(ei*ej), dij = 0.5*(di+dj)

read_data system/init.data
include PARM.lammps

group nacl type 1 2 # nacl wall
group eth type 3 4 5 6 7 # ethanol molecules
group oxy type 7 # ethanol molecules
group mol2 molecule 2
group topull intersect mol2 oxy

timestep 1
fix mymme nacl momentum 1 linear 1 1 1
velocity all create ${tem} 4928459 rot yes mom yes dist gaussian
fix mynpt all npt temp ${tem} ${tem} 100 x ${pre} ${pre} 1000 y ${pre} ${pre} 1000

thermo 1000
dump dp1 all atom 10000 dump.lammpstrj

run 100000 # 100 ps
unfix mymme
unfix mynpt

fix mynvt all nvt temp ${tem} ${tem} 100

fix mytth1 nacl spring/self ${k2}

variable zave equal xcm(topull,z)
variable cpt loop 24
label loop
variable zdes equal -18+0.5*(${cpt}-1)
fix mytth2 topull spring tether ${k1} 0 0 ${zdes} 0
run 50000
fix myat1 all ave/time 10 10 100 v_zave v_zdes file data/position.${cpt}.dat
run 500000
unfix myat1
next cpt
jump SELF loop

