# LAMMPS input script
# author : Simon Gravelle
# lammpstutorials.github.io

# PART A - ENERGY MINIMIZATION

# 1) Initialization
units lj
dimension 2
atom_style atomic
pair_style lj/cut 2.5
boundary p p p

# 2) System definition
region myreg block -30 30 -30 30 -0.5 0.5
create_box 2 myreg
create_atoms 1 random 1500 341341 myreg
create_atoms 2 random 100 127569 myreg

# 3) Simulation settings
mass 1 1
mass 2 1
pair_coeff 1 1 1.0 1.0
pair_coeff 2 2 0.5 3.0

# 4) Visualization
thermo 10

# 5) Run
minimize 1.0e-4 1.0e-6 1000 10000

# PART B - MOLECULAR DYNAMICS

# 4) Vizualization
thermo 1000
dump mydmp all atom 1000 dump.lammpstrj
variable kinetic_energy equal ke
variable potential_energy equal pe
variable pressure equal press
fix myat1 all ave/time 10 1 10 v_kinetic_energy v_potential_energy v_pressure file energy.dat

# 5) Run
fix mynve all nve
fix mylgv all langevin 1.0 1.0 0.1 1530917
fix myefn all enforce2d
timestep 0.005
run 10000
