# LAMMPS parameter script
# author : Simon Gravelle
# lammpstutorials.github.io

mass 1 15.9994
mass 2 1.008
mass 3 28.990
mass 4 35.453
mass 5 26.9815
mass 6 26.9815

pair_coeff 1 1 0.185199 3.1589
pair_coeff 2 2 0.0 0.0
pair_coeff 3 3 0.04690 2.4299
pair_coeff 4 4 0.1500 4.04470
pair_coeff 5 5 11.697 2.574
pair_coeff 6 6 11.697 2.574

bond_coeff 1 0 0.9572

angle_coeff 1 0 104.52

